proyfinal/src/viki/013/experimentInOfficeAgust.take6.output/5626eed9-76a8-4746-81cb-88e30e762ed1.als.dat
{'cnf.clauses': '118081',
 'cnf.totvars': '69608',
 'conflict literals': '1',
 'conflicts': '2',
 'decisions': '845',
 'memused.mb': '16.49',
 'outcome': 'UNSAT',
 'propagations': '18764',
 'restarts': '1',
 'solver.msecs': 32,
 'task.msecs': 93}
