proyfinal/src/viki/013/experimentInOfficeAgust.take6.output/5626eed9-76a8-4746-81cb-88e30e762ed1.als.out
Reading from standard input... Use '--help' for help.
============================[ Problem Statistics ]=============================
|                                                                             |
|  Number of variables:         69608                                         |
|  Number of clauses:          118081                                         |
|  Parse time:                   0.03 s                                       |
|                                                                             |
============================[ Search Statistics ]==============================
| Conflicts |          ORIGINAL         |          LEARNT          | Progress |
|           |    Vars  Clauses Literals |    Limit  Clauses Lit/Cl |          |
===============================================================================
===============================================================================
restarts              : 1
conflicts             : 2              (62 /sec)
decisions             : 845            (0.00 % random) (26358 /sec)
propagations          : 18764          (585314 /sec)
conflict literals     : 1              (0.00 % deleted)
Memory used           : 16.49 MB
CPU time              : 0.032058 s

UNSATISFIABLE
